80
21
0 21 22 23 25 26 27 31 32 35 36 37 42 43 45 48 49 50 51 52 53 54 56 57 59 61 63 64 65 66 68 70 71 72 73 74 75 77
1 21 22 23 24 25 27 28 29 30 31 32 33 35 36 37 39 45 48 49 51 52 54 56 57 59 61 62 64 65 66 67 68 70 72 74
2 21 22 24 25 26 27 29 30 32 33 35 36 37 40 43 44 45 46 49 51 52 57 58 59 60 62 65 68 69 72 73 74 78
3 22 25 26 27 30 32 33 34 35 37 39 40 45 46 50 51 52 54 57 58 61 63 65 67 68 74 77 78
4 23 24 25 26 27 28 29 31 32 33 36 37 43 44 45 48 51 52 55 56 57 58 59 63 65 68 72 76 77 79
5 21 22 24 25 26 27 28 31 33 34 35 37 39 45 48 49 50 51 54 57 58 59 60 65 67 69 71 72 74 75
6 21 22 23 24 26 28 30 32 33 37 39 45 46 48 49 50 51 52 54 58 60 62 63 65 66 68 71 72 75 77 78
7 22 23 25 27 29 31 32 33 34 39 42 46 49 50 51 54 57 59 60 65 69 70 71 72 73 74 75 77 78
8 21 22 23 25 26 28 34 35 36 37 39 40 43 45 50 51 57 58 59 61 63 69 72 73 75 78 79
9 21 23 24 25 26 31 32 33 35 36 37 45 49 50 51 56 57 60 61 63 74 75 78
10 21 22 23 25 27 30 31 32 35 37 42 48 49 57 59 60 61 63 67 68 72 73 74 75 77
11 22 23 24 27 28 31 32 40 41 46 54 57 62 66 68 69 73 77 78
12 26 27 28 32 33 34 35 36 46 56 58 62 64 65 67 69 73
13 21 23 26 37 41 45 47 49 52 54 60 61 66 67 68 69 73 74 78 79
14 27 33 34 36 43 46 49 50 59 61 62 70 72 78 79
15 21 29 36 38 42 52 67 71
16 32 33 41 45 46 53 61 63 64 73 74 77
17 37 39 43 51 54 55 58 63 69 72 78 79
18 28 35 42 44 51 52 64 65 79
19 29 35 62 68
20 37 58 59 75
